(set-logic ALL)
(declare-fun i1 () Int)
(declare-fun it732 () Int)
(declare-fun it15 () Int)
(declare-fun it733 () Int)
(declare-fun it734 () Int)
(declare-fun it14 () Int)
(declare-fun it735 () Int)
(declare-fun it13 () Int)
(declare-fun bt821 () Bool)
(declare-fun bt822 () Bool)
(declare-fun bt823 () Bool)
(declare-fun bt824 () Bool)
(declare-fun it17 () Int)
(declare-fun it16 () Int)
(declare-fun it18 () Int)
(declare-fun bt25 () Bool)
(declare-fun bt28 () Bool)
(declare-fun bt26 () Bool)
(declare-fun bt27 () Bool)
(declare-fun it739 () Int)
(declare-fun it740 () Int)
(declare-fun it741 () Int)
(declare-fun it742 () Int)
(declare-fun bt825 () Bool)
(declare-fun bt826 () Bool)
(declare-fun bt827 () Bool)
(declare-fun bt828 () Bool)
(declare-fun it829 () Int)
(declare-fun it831 () Int)
(declare-fun it832 () Int)
(declare-fun it833 () Int)
(declare-fun it834 () Int)
(declare-fun bt925 () Bool)
(declare-fun bt926 () Bool)
(declare-fun bt927 () Bool)
(declare-fun bt928 () Bool)
(declare-fun bt831 () Bool)
(declare-fun bt829 () Bool)
(declare-fun bt832 () Bool)
(declare-fun bt830 () Bool)
(declare-fun it744 () Int)
(declare-fun it743 () Int)
(declare-fun it745 () Int)
(declare-fun it928 () Int)
(declare-fun it929 () Int)
(declare-fun it930 () Int)
(declare-fun it931 () Int)
(declare-fun bt1033 () Bool)
(declare-fun bt1034 () Bool)
(declare-fun bt1035 () Bool)
(declare-fun bt1036 () Bool)
(declare-fun bt1038 () Bool)
(declare-fun bt1037 () Bool)
(declare-fun it933 () Int)
(declare-fun bt1039 () Bool)
(declare-fun it934 () Int)
(declare-fun it932 () Int)
(declare-fun bt1040 () Bool)
(declare-fun it938 () Int)
(declare-fun it939 () Int)
(declare-fun it940 () Int)
(declare-fun it941 () Int)
(declare-fun bt1045 () Bool)
(declare-fun bt1046 () Bool)
(declare-fun bt1047 () Bool)
(declare-fun bt1048 () Bool)
(declare-fun bt1051 () Bool)
(declare-fun it943 () Int)
(declare-fun it944 () Int)
(declare-fun it942 () Int)
(declare-fun bt1050 () Bool)
(declare-fun bt1049 () Bool)
(declare-fun bt1052 () Bool)
(declare-fun it956 () Int)
(declare-fun it957 () Int)
(declare-fun it958 () Int)
(declare-fun it959 () Int)
(declare-fun bt1065 () Bool)
(declare-fun bt1066 () Bool)
(declare-fun bt1067 () Bool)
(declare-fun bt1068 () Bool)
(assert (= (+ i1 (- 1)) 0))
(assert (= (+ it732 (- 2)) 0))
(assert (= (+ it733 (* it15 (- 1))) 0))
(assert (= (+ (* it14 (- 1)) it734) 0))
(assert (= (+ (* it13 (- 1)) it735) 0))
(assert (or (not bt821) (and false bt821)))
(assert (or bt822 (and false (not bt822))))
(assert (or (not bt823) (and false bt823)))
(assert (or (not bt824) (and false bt824)))
(assert (and bt27
     (not bt26)
     (not bt28)
     (not bt25)
     (= (+ it18 (- 1)) 0)
     (not bt823)
     (= (+ (* it16 (- 1)) it735) 0)
     (not bt821)
     (= (+ it732 (- 2)) 0)
     (= (+ (* it17 (- 1)) it734) 0)
     bt822
     (not bt824)))
(assert (= (+ it739 (- 2)) 0))
(assert (= (+ (* it18 (- 1)) it740) 0))
(assert (= (+ it741 (* it17 (- 1))) 0))
(assert (= (+ (* it16 (- 1)) it742) 0))
(assert (or (and (not bt27) (not bt825)) (and bt27 bt825)))
(assert (or (and (not bt28) (not bt826)) (and bt28 bt826)))
(assert (or (and bt26 bt827) (and (not bt26) (not bt827))))
(assert (or (and bt25 bt828) (and (not bt25) (not bt828))))
(assert (let ((a!1 (+ (* (+ 0 it740) (exp 3 (+ it829 (- 1))) (+ 0 (- 1)))
              (+ 0 it742))))
  (and bt825
       (>= (+ (* it739 (- 1)) 2) 0)
       (>= (+ it829 (- 1)) 0)
       (not bt827)
       (> (+ it742 (* it740 (- 1))) 0)
       (> a!1 (+ 0 0))
       (>= (+ it739 (- 2)) 0)
       (>= (* it741 (- 1)) 0)
       (not bt826)
       (not bt828))))
(assert (= (+ it831 (* it739 (- 1))) 0))
(assert (= (+ (* (exp 3 it829) (+ 0 it740) (+ 0 (- 1))) (+ 0 it832))
   (+ 0 0)))
(assert (= (+ (* it741 (- 1)) it833) 0))
(assert (= (+ it834 (* it742 (- 1))) 0))
(assert (or bt925 (and false (not bt925))))
(assert (or (not bt926) (and false bt926)))
(assert (or (and false bt927) (not bt927)))
(assert (or (and false bt928) (not bt928)))
(assert (and (= (+ it834 (* it745 (- 1))) 0)
     (= (+ it832 (* it743 (- 1))) 0)
     (= (+ (* it744 (- 1)) it833) 0)
     (not bt927)
     (not bt830)
     (not bt926)
     bt832
     (not bt829)
     (<= (+ it834 (* it832 (- 1))) 0)
     (= (+ it831 (- 2)) 0)
     (not bt831)
     bt925
     (not bt928)))
(assert (= (+ it928 (- 2)) 0))
(assert (= (+ it929 (* it743 (- 1))) 0))
(assert (= (+ (* it744 (- 1)) it930) 0))
(assert (= (+ (* it745 (- 1)) it931) 0))
(assert (or (and (not bt830) (not bt1033)) (and bt1033 bt830)))
(assert (or (and (not bt1034) (not bt829)) (and bt1034 bt829)))
(assert (or (and (not bt831) (not bt1035)) (and bt1035 bt831)))
(assert (or (and bt1036 bt832) (and (not bt1036) (not bt832))))
(assert (and bt1040
     bt1036
     (not bt1034)
     (= (+ (* it932 (- 1)) it929) 0)
     (= (+ it928 (- 2)) 0)
     (= (+ (* it934 (- 1)) it931) 0)
     (not bt1033)
     (not bt1039)
     (= (+ (* it933 (- 1)) it930) 0)
     bt1037
     (> it929 0)
     (not bt1038)))
(assert (= (+ it938 (- 2)) 0))
(assert (= (+ (* it932 (- 1)) it939) 0))
(assert (= (+ (* it933 (- 1)) it940) 0))
(assert (= (+ it941 (* it934 (- 1))) 0))
(assert (or (and bt1038 bt1045) (and (not bt1038) (not bt1045))))
(assert (or (and bt1046 bt1037) (and (not bt1046) (not bt1037))))
(assert (or (and bt1039 bt1047) (and (not bt1039) (not bt1047))))
(assert (or (and (not bt1048) (not bt1040)) (and bt1040 bt1048)))
(assert (and (= (+ it938 (- 2)) 0)
     bt1046
     bt1052
     bt1048
     (not bt1045)
     (not bt1049)
     bt1050
     (= (+ (* it942 (- 1)) it939) 0)
     (= (+ (* it944 (- 1)) it941) 0)
     (= (+ (* it943 (- 1)) it940) 0)
     (not bt1051)))
(assert (= (+ it956 (- 2)) 0))
(assert (= (+ it957 (* it942 (- 1))) 0))
(assert (= (+ it958 (* it943 (- 1))) 0))
(assert (= (+ (* it944 (- 1)) it959) 0))
(assert (or (and (not bt1050) (not bt1065)) (and bt1065 bt1050)))
(assert (or (and bt1049 bt1066) (and (not bt1049) (not bt1066))))
(assert (or (and (not bt1067) (not bt1051)) (and bt1067 bt1051)))
(assert (or (and (not bt1052) (not bt1068)) (and bt1052 bt1068)))
(assert (and bt1065 bt1066 (not bt1067) bt1068 (= (+ it956 (- 2)) 0)))
(check-sat)
